1 -1 2 0
1 -1 3 0
1 1 4 0
1 -1 -5 0
1 -1 -6 0
1 -7 -8 0
1 -7 -2 0
1 -7 3 0
1 7 -1 0
1 -7 -6 0
1 9 10 0
1 9 -11 0
1 -9 -12 0
1 -9 -2 0
1 9 -3 0
1 -9 13 0
1 -9 14 0
1 -9 4 0
1 9 6 0
1 -12 11 0
1 12 15 0
1 12 2 0
1 -12 -3 0
1 12 -13 0
1 -12 -14 0
1 12 -4 0
1 12 6 0
1 3 -16 0
1 3 -17 0
1 3 -18 0
1 -3 7 0
1 -3 19 0
1 3 -20 0
1 3 -21 0
1 -3 -9 0
1 -3 -1 0
1 3 -6 0
1 6 -22 0
1 -6 -16 0
1 6 17 0
1 6 18 0
1 -6 -7 0
1 6 3 0
1 -6 19 0
1 6 20 0
1 -6 -21 0
1 -6 9 0
1 6 -1 0
1 2 16 0
1 2 23 0
1 2 24 0
1 -2 19 0
1 2 -25 0
1 2 9 0
1 2 -1 0
1 2 4 0
1 4 16 0
1 -4 26 0
1 -4 12 0
1 4 7 0
1 4 -2 0
1 4 -27 0
1 4 25 0
1 4 -9 0
1 -4 -1 0
1 -4 28 0
1 21 10 0
1 21 11 0
1 21 18 0
1 21 3 0
1 -21 -25 0
1 21 -6 0
1 -18 -3 0
1 -18 13 0
1 -18 6 0
1 20 11 0
1 -20 17 0
1 20 -29 0
1 -20 30 0
1 20 3 0
1 -20 -13 0
1 20 14 0
1 20 31 0
1 -20 -32 0
1 -20 -6 0
1 17 10 0
1 17 11 0
1 17 -29 0
1 -17 -26 0
1 17 -30 0
1 17 -3 0
1 -17 -13 0
1 17 14 0
1 17 20 0
1 -17 31 0
1 17 -32 0
1 17 -6 0
1 14 33 0
1 -14 -11 0
1 -14 12 0
1 -14 -34 0
1 -14 35 0
1 14 -36 0
1 14 -37 0
1 14 20 0
1 -14 21 0
1 14 9 0
1 -14 38 0
1 11 33 0
1 -11 39 0
1 -11 17 0
1 11 -18 0
1 11 34 0
1 -11 -35 0
1 -11 -36 0
1 -11 -14 0
1 11 -20 0
1 -11 -21 0
1 -11 -9 0
1 -13 -10 0
1 13 -17 0
1 -13 -18 0
1 -13 12 0
1 -13 -40 0
1 -13 20 0
1 13 21 0
1 13 9 0
1 -10 -41 0
1 -10 -42 0
1 -10 -16 0
1 -10 -17 0
1 10 18 0
1 -10 12 0
1 10 -34 0
1 -10 13 0
1 10 -43 0
1 -10 -21 0
1 10 9 0
1 -10 38 0
1 36 39 0
1 36 -11 0
1 36 -29 0
1 -36 -30 0
1 36 19 0
1 36 -31 0
1 -36 32 0
1 39 -11 0
1 39 -16 0
1 -39 29 0
1 39 -30 0
1 -39 -36 0
1 39 14 0
1 -39 31 0
1 -39 32 0
1 -35 -11 0
1 -35 -29 0
1 -35 14 0
1 35 31 0
1 -35 -32 0
1 -33 41 0
1 33 -11 0
1 -33 30 0
1 -33 35 0
1 33 14 0
1 -33 -32 0
1 -32 33 0
1 32 -17 0
1 32 -30 0
1 -32 -44 0
1 32 36 0
1 32 -20 0
1 32 -45 0
1 -32 -46 0
1 30 -47 0
1 30 44 0
1 30 -36 0
1 30 32 0
1 -30 46 0
1 -31 33 0
1 -31 -39 0
1 -31 -17 0
1 -31 -29 0
1 31 44 0
1 31 48 0
1 -31 34 0
1 31 -36 0
1 -31 -20 0
1 -31 -49 0
1 31 -50 0
1 31 -38 0
1 29 17 0
1 29 -51 0
1 29 48 0
1 29 34 0
1 29 35 0
1 -29 -36 0
1 -29 20 0
1 -29 -31 0
1 29 -46 0
1 29 -50 0
1 -5 -52 0
1 -5 8 0
1 5 -53 0
1 5 -54 0
1 5 -1 0
1 -8 -55 0
1 8 -52 0
1 -8 7 0
1 8 53 0
1 -8 54 0
1 8 5 0
1 -56 55 0
1 -56 -52 0
1 56 57 0
1 56 58 0
1 56 -54 0
1 56 59 0
1 15 55 0
1 15 52 0
1 -15 58 0
1 15 -12 0
1 -15 -53 0
1 -15 54 0
1 -15 -60 0
1 15 59 0
1 -15 -56 0
1 -52 26 0
1 52 -61 0
1 -52 23 0
1 -52 -15 0
1 -52 -54 0
1 52 27 0
1 52 25 0
1 52 56 0
1 -52 5 0
1 54 52 0
1 54 -26 0
1 54 -23 0
1 -54 -15 0
1 54 -8 0
1 -54 62 0
1 -54 27 0
1 54 -25 0
1 -54 5 0
1 -55 15 0
1 55 8 0
1 -55 -53 0
1 -55 -5 0
1 53 -55 0
1 -53 -15 0
1 -53 -8 0
1 53 -63 0
1 -53 -56 0
1 -53 5 0
1 25 -52 0
1 25 -57 0
1 -25 -23 0
1 -25 -58 0
1 -25 -54 0
1 -25 -60 0
1 -25 59 0
1 -25 21 0
1 -23 52 0
1 23 -18 0
1 23 58 0
1 -23 -2 0
1 -23 -54 0
1 23 60 0
1 23 -59 0
1 -23 25 0
1 -23 4 0
1 27 -52 0
1 27 26 0
1 27 57 0
1 27 -58 0
1 27 -64 0
1 27 -65 0
1 -27 -2 0
1 -27 54 0
1 -27 60 0
1 27 -20 0
1 -27 -59 0
1 -27 -66 0
1 -27 -67 0
1 27 4 0
1 26 -59 0
1 -26 -52 0
1 -26 -17 0
1 -26 -58 0
1 -26 -64 0
1 -26 65 0
1 26 -2 0
1 -26 -54 0
1 26 -60 0
1 26 -27 0
1 -26 66 0
1 26 -67 0
1 58 -68 0
1 -58 16 0
1 58 -26 0
1 58 -23 0
1 -58 -15 0
1 -58 -69 0
1 -58 -43 0
1 58 27 0
1 58 25 0
1 -58 -56 0
1 59 68 0
1 -59 41 0
1 59 -16 0
1 -59 26 0
1 -59 23 0
1 -59 58 0
1 59 69 0
1 -59 -19 0
1 59 -25 0
1 59 56 0
1 57 68 0
1 -57 -26 0
1 -57 70 0
1 -57 -23 0
1 57 -15 0
1 57 60 0
1 57 -27 0
1 57 -25 0
1 -57 56 0
1 60 68 0
1 -60 26 0
1 60 57 0
1 -60 23 0
1 -60 15 0
1 -60 69 0
1 -60 27 0
1 60 71 0
1 -60 -25 0
1 60 56 0
1 -19 -10 0
1 19 -16 0
1 19 58 0
1 19 -65 0
1 -19 2 0
1 -19 3 0
1 -19 13 0
1 -19 -36 0
1 -19 59 0
1 -19 66 0
1 -19 -4 0
1 -16 -10 0
1 -16 39 0
1 16 -58 0
1 -16 -64 0
1 -16 2 0
1 16 -3 0
1 -16 19 0
1 -16 -59 0
1 16 -66 0
1 16 -67 0
1 -16 4 0
1 16 6 0
1 43 58 0
1 -43 64 0
1 -43 65 0
1 43 24 0
1 43 72 0
1 -43 59 0
1 -43 66 0
1 -43 -67 0
1 -41 33 0
1 -41 -10 0
1 -41 -58 0
1 -41 64 0
1 -41 -65 0
1 41 -24 0
1 41 -72 0
1 -41 13 0
1 -41 59 0
1 41 -66 0
1 41 67 0
1 -41 -28 0
1 65 -41 0
1 -65 -26 0
1 -65 -73 0
1 -65 48 0
1 -65 -74 0
1 65 -34 0
1 65 -43 0
1 -65 -19 0
1 65 -27 0
1 65 67 0
1 -65 50 0
1 65 -38 0
1 67 -41 0
1 67 16 0
1 67 26 0
1 67 65 0
1 -67 73 0
1 67 34 0
1 -67 -43 0
1 67 19 0
1 -67 -27 0
1 67 75 0
1 67 -38 0
1 -64 -68 0
1 -64 41 0
1 -64 -16 0
1 -64 26 0
1 -64 76 0
1 64 73 0
1 64 -77 0
1 -64 69 0
1 -64 43 0
1 -64 -19 0
1 64 75 0
1 -64 -78 0
1 -66 -68 0
1 66 -41 0
1 66 16 0
1 66 26 0
1 66 64 0
1 66 -73 0
1 -66 77 0
1 -66 -69 0
1 -66 -43 0
1 66 -19 0
1 -66 27 0
1 66 -78 0
1 -34 22 0
1 34 -10 0
1 34 -29 0
1 34 -13 0
1 34 72 0
1 -34 -14 0
1 34 -31 0
1 34 67 0
1 -34 28 0
1 -34 -38 0
1 38 68 0
1 38 -10 0
1 -38 22 0
1 38 -11 0
1 38 -29 0
1 38 -65 0
1 -38 34 0
1 38 -72 0
1 -38 13 0
1 -38 31 0
1 38 -67 0
1 -38 28 0
1 48 22 0
1 -48 -42 0
1 -48 -79 0
1 48 65 0
1 -48 77 0
1 48 24 0
1 48 -72 0
1 48 40 0
1 48 -31 0
1 48 -67 0
1 -48 50 0
1 -48 -28 0
1 50 22 0
1 -50 -42 0
1 50 79 0
1 50 -65 0
1 -50 24 0
1 -50 72 0
1 50 -40 0
1 50 37 0
1 -50 28 0
1 50 -67 0
1 -50 78 0
1 72 -22 0
1 -72 80 0
1 72 -81 0
1 72 44 0
1 72 -48 0
1 -72 -34 0
1 -72 3 0
1 -72 -43 0
1 -72 -82 0
1 72 83 0
1 72 46 0
1 -72 50 0
1 -72 -38 0
1 -22 41 0
1 22 -80 0
1 -22 81 0
1 22 -44 0
1 22 48 0
1 -22 -34 0
1 -22 -72 0
1 22 -6 0
1 22 -46 0
1 22 -50 0
1 -22 -38 0
1 -24 41 0
1 -24 -80 0
1 24 84 0
1 -24 -73 0
1 24 48 0
1 -24 2 0
1 24 -34 0
1 24 43 0
1 24 82 0
1 -24 85 0
1 24 75 0
1 24 50 0
1 24 -28 0
1 -28 -41 0
1 -28 -80 0
1 -28 84 0
1 28 -73 0
1 28 48 0
1 -28 24 0
1 28 -34 0
1 28 43 0
1 -28 4 0
1 -28 -82 0
1 -28 -85 0
1 -28 75 0
1 28 -50 0
1 -44 -42 0
1 -44 -29 0
1 44 30 0
1 44 72 0
1 44 40 0
1 44 37 0
1 44 31 0
1 44 32 0
1 -44 -46 0
1 -46 -42 0
1 46 79 0
1 46 -29 0
1 46 -30 0
1 -46 -44 0
1 46 -72 0
1 46 -37 0
1 -46 -31 0
1 81 22 0
1 -81 42 0
1 -81 79 0
1 -81 83 0
1 -81 -47 0
1 81 -84 0
1 81 -72 0
1 -81 37 0
1 -81 -49 0
1 -81 45 0
1 -83 22 0
1 -83 -42 0
1 -83 79 0
1 -83 47 0
1 -83 81 0
1 83 72 0
1 83 -40 0
1 -83 -49 0
1 -83 45 0
1 -83 85 0
1 37 79 0
1 37 -86 0
1 -37 87 0
1 -37 -81 0
1 -37 44 0
1 -37 -48 0
1 -37 -88 0
1 -37 89 0
1 37 -83 0
1 -37 -46 0
1 -79 -11 0
1 79 86 0
1 79 -87 0
1 -79 44 0
1 79 88 0
1 79 -37 0
1 -79 -89 0
1 79 83 0
1 79 -46 0
1 40 -81 0
1 40 44 0
1 -40 -48 0
1 -40 13 0
1 40 82 0
1 -40 83 0
1 40 -50 0
1 42 -10 0
1 -42 90 0
1 -42 80 0
1 -42 -81 0
1 -42 44 0
1 -42 -48 0
1 -42 -40 0
1 42 91 0
1 -42 82 0
1 42 46 0
1 87 -51 0
1 -87 80 0
1 87 -49 0
1 -87 -37 0
1 87 -89 0
1 89 -79 0
1 -89 -51 0
1 89 87 0
1 -89 -47 0
1 89 -49 0
1 -89 45 0
1 -86 79 0
1 -86 -51 0
1 86 90 0
1 86 47 0
1 86 -88 0
1 86 -37 0
1 86 -49 0
1 -86 45 0
1 88 -79 0
1 88 -86 0
1 -88 -51 0
1 -88 -47 0
1 -88 37 0
1 -88 -91 0
1 88 -49 0
1 -88 -45 0
1 -45 47 0
1 45 81 0
1 -45 -88 0
1 45 89 0
1 45 32 0
1 -45 83 0
1 47 -86 0
1 -47 30 0
1 -47 81 0
1 47 88 0
1 47 -89 0
1 47 83 0
1 47 45 0
1 -49 -86 0
1 -49 -51 0
1 49 -87 0
1 -49 -81 0
1 49 88 0
1 -49 -31 0
1 49 -89 0
1 51 29 0
1 -51 -86 0
1 51 -87 0
1 -51 81 0
1 51 -49 0
1 51 -89 0
1 51 83 0
1 -69 -68 0
1 -69 92 0
1 69 61 0
1 69 -57 0
1 69 -58 0
1 -69 64 0
1 69 -34 0
1 69 63 0
1 69 -62 0
1 69 60 0
1 -69 59 0
1 -69 -66 0
1 68 -61 0
1 -68 57 0
1 68 -58 0
1 -68 64 0
1 -68 -69 0
1 68 -63 0
1 -68 -62 0
1 68 60 0
1 68 38 0
1 -77 92 0
1 -77 61 0
1 77 -70 0
1 77 -93 0
1 77 48 0
1 77 63 0
1 -77 -71 0
1 -77 -66 0
1 77 78 0
1 -78 -61 0
1 -78 -70 0
1 -78 93 0
1 -78 64 0
1 -78 -77 0
1 -78 62 0
1 -78 -71 0
1 78 66 0
1 78 50 0
1 -61 -68 0
1 61 52 0
1 61 -84 0
1 -61 -77 0
1 -61 -69 0
1 61 62 0
1 -61 -85 0
1 61 -75 0
1 61 78 0
1 -62 -68 0
1 -62 61 0
1 62 -73 0
1 62 -77 0
1 -62 54 0
1 -62 85 0
1 62 -75 0
1 -62 -78 0
1 -92 68 0
1 92 55 0
1 92 77 0
1 -92 69 0
1 92 63 0
1 92 78 0
1 -63 -68 0
1 -63 -92 0
1 63 -77 0
1 -63 -69 0
1 -63 -53 0
1 -73 61 0
1 73 -70 0
1 -73 93 0
1 -73 -64 0
1 -73 -44 0
1 -73 -65 0
1 -73 -24 0
1 -73 -62 0
1 -73 94 0
1 73 -66 0
1 73 -67 0
1 73 75 0
1 73 -28 0
1 75 -61 0
1 -75 93 0
1 75 -64 0
1 -75 67 0
1 -75 -73 0
1 75 24 0
1 75 -62 0
1 75 -71 0
1 -75 -66 0
1 75 -46 0
1 -84 -61 0
1 -84 95 0
1 84 -70 0
1 -84 -93 0
1 84 81 0
1 84 76 0
1 84 -74 0
1 -84 62 0
1 84 -71 0
1 -84 94 0
1 -84 85 0
1 84 96 0
1 -84 28 0
1 -85 61 0
1 -85 70 0
1 -85 84 0
1 -85 -76 0
1 -85 74 0
1 85 -24 0
1 85 95 0
1 85 -28 0
1 93 90 0
1 -93 -58 0
1 93 -84 0
1 -93 -73 0
1 -93 91 0
1 -93 82 0
1 -93 -75 0
1 93 78 0
1 94 -90 0
1 94 80 0
1 -94 73 0
1 -94 -77 0
1 -94 -91 0
1 94 -59 0
1 -94 82 0
1 94 -85 0
1 -94 -75 0
1 94 78 0
1 -70 -57 0
1 70 -84 0
1 -70 -73 0
1 -70 71 0
1 -70 85 0
1 -70 -75 0
1 -70 -78 0
1 71 -84 0
1 71 77 0
1 -71 -60 0
1 -71 85 0
1 -71 78 0
1 80 -94 0
1 -80 -87 0
1 -80 93 0
1 -80 -76 0
1 -80 74 0
1 -80 -24 0
1 80 72 0
1 -80 40 0
1 -80 -82 0
1 -80 95 0
1 80 -96 0
1 80 28 0
1 82 22 0
1 -82 -42 0
1 -82 80 0
1 -82 93 0
1 82 -76 0
1 82 74 0
1 82 -24 0
1 -82 -72 0
1 82 -40 0
1 82 -89 0
1 -82 -94 0
1 -82 -95 0
1 -82 -96 0
1 82 -28 0
1 -90 -42 0
1 -90 -86 0
1 90 -93 0
1 90 -76 0
1 -90 -74 0
1 90 -40 0
1 -90 91 0
1 90 -94 0
1 -90 95 0
1 91 42 0
1 -91 -90 0
1 91 93 0
1 91 -74 0
1 91 40 0
1 91 88 0
1 91 -94 0
1 91 95 0
1 -91 -96 0
1 -74 80 0
1 74 84 0
1 -74 -65 0
1 74 -91 0
1 74 85 0
1 -74 96 0
1 -96 -90 0
1 -96 80 0
1 96 -84 0
1 96 -91 0
1 96 -82 0
1 96 -85 0
1 96 -67 0
1 76 90 0
1 76 -95 0
1 76 -80 0
1 -76 84 0
1 -76 91 0
1 -76 -82 0
1 -76 85 0
1 95 90 0
1 -95 80 0
1 -95 84 0
1 -95 -76 0
1 95 -91 0
1 95 82 0
1 95 -66 0
1 95 85 0
